(set-logic QF_FPABV)
(declare-fun b739 () (_ FP 8 24))
(declare-fun b442 () (_ FP 11 53))
(declare-fun b791 () (_ FP 8 24))
(declare-fun b901 () (_ FP 8 24))
(declare-fun b826 () (_ FP 8 24))
(declare-fun b755 () (_ FP 8 24))
(declare-fun b760 () (_ FP 8 24))
(declare-fun b452 () (_ FP 8 24))
(declare-fun b896 () (_ FP 8 24))
(declare-fun b1029 () (_ FP 8 24))
(declare-fun b121 () (_ FP 8 24))
(declare-fun b124 () (_ FP 11 53))
(declare-fun b135 () (_ FP 11 53))
(declare-fun b936 () (_ FP 8 24))
(declare-fun b866 () (_ FP 8 24))
(declare-fun b126 () (_ FP 8 24))
(declare-fun b1001 () (_ FP 8 24))
(declare-fun b966 () (_ FP 8 24))
(declare-fun b831 () (_ FP 8 24))
(declare-fun b119 () (_ FP 8 24))
(declare-fun b971 () (_ FP 8 24))
(declare-fun b1020 () (_ FP 8 24))
(declare-fun b931 () (_ FP 8 24))
(declare-fun b796 () (_ FP 8 24))
(declare-fun b734 () (_ FP 8 24))
(declare-fun b861 () (_ FP 8 24))
(define-fun .3 () RoundingMode roundNearestTiesToEven)
(define-fun .9 () (_ FP 8 24) b119)
(define-fun .10 () (_ FP 8 24) b121)
(define-fun .11 () (_ FP 8 24) (/ .3 .9 .10))
(define-fun .12 () (_ FP 11 53) ((_ asFloat 11 53) .3 .11))
(define-fun .13 () (_ FP 11 53) b135)
(define-fun .14 () (_ FP 11 53) (* .3 .12 .13))
(define-fun .15 () (_ FP 8 24) (* .3 .11 .11))
(define-fun .16 () (_ FP 8 24) (- .15))
(define-fun .17 () (_ FP 8 24) (+ .3 .9 .16))
(define-fun .18 () (_ FP 11 53) ((_ asFloat 11 53) .3 .17))
(define-fun .19 () (_ FP 11 53) (/ .3 .18 .14))
(define-fun .20 () (_ FP 8 24) ((_ asFloat 8 24) .3 .19))
(define-fun .21 () (_ FP 8 24) (+ .3 .11 .20))
(define-fun .22 () (_ FP 8 24) (* .3 .21 .21))
(define-fun .23 () (_ FP 8 24) (- .22))
(define-fun .24 () (_ FP 8 24) (+ .3 .9 .23))
(define-fun .25 () (_ FP 11 53) ((_ asFloat 11 53) .3 .24))
(define-fun .26 () (_ FP 8 24) ((_ asFloat 8 24) .3 .25))
(define-fun .27 () (_ FP 8 24) b1029)
(define-fun .28 () Bool (= .26 .27))
(define-fun .29 () Bool (not .28))
(define-fun .30 () (_ FP 11 53) ((_ asFloat 11 53) .3 .21))
(define-fun .31 () (_ FP 11 53) (* .3 .13 .30))
(define-fun .32 () (_ FP 11 53) (/ .3 .25 .31))
(define-fun .33 () (_ FP 8 24) ((_ asFloat 8 24) .3 .32))
(define-fun .34 () (_ FP 8 24) (+ .3 .21 .33))
(define-fun .35 () (_ FP 8 24) (* .3 .34 .34))
(define-fun .36 () (_ FP 8 24) (- .35))
(define-fun .37 () (_ FP 8 24) (+ .3 .9 .36))
(define-fun .38 () (_ FP 11 53) ((_ asFloat 11 53) .3 .37))
(define-fun .39 () (_ FP 8 24) ((_ asFloat 8 24) .3 .38))
(define-fun .40 () (_ FP 8 24) b1020)
(define-fun .41 () Bool (= .39 .40))
(define-fun .42 () Bool (not .41))
(define-fun .43 () (_ FP 8 24) b971)
(define-fun .44 () Bool (= .34 .43))
(define-fun .45 () Bool (not .44))
(define-fun .46 () (_ FP 11 53) ((_ asFloat 11 53) .3 .43))
(define-fun .47 () (_ FP 11 53) (* .3 .13 .46))
(define-fun .48 () (_ FP 8 24) (* .3 .43 .43))
(define-fun .49 () (_ FP 8 24) (- .48))
(define-fun .50 () (_ FP 8 24) (+ .3 .9 .49))
(define-fun .51 () (_ FP 11 53) ((_ asFloat 11 53) .3 .50))
(define-fun .52 () (_ FP 11 53) (/ .3 .51 .47))
(define-fun .53 () (_ FP 8 24) ((_ asFloat 8 24) .3 .52))
(define-fun .54 () (_ FP 8 24) (+ .3 .43 .53))
(define-fun .55 () (_ FP 8 24) (* .3 .54 .54))
(define-fun .56 () (_ FP 8 24) (- .55))
(define-fun .57 () (_ FP 8 24) (+ .3 .9 .56))
(define-fun .58 () (_ FP 11 53) ((_ asFloat 11 53) .3 .57))
(define-fun .59 () (_ FP 8 24) ((_ asFloat 8 24) .3 .58))
(define-fun .60 () (_ FP 8 24) b1001)
(define-fun .61 () Bool (= .59 .60))
(define-fun .62 () Bool (not .61))
(define-fun .63 () (_ FP 8 24) b936)
(define-fun .64 () Bool (= .54 .63))
(define-fun .65 () Bool (not .64))
(define-fun .66 () (_ FP 11 53) ((_ asFloat 11 53) .3 .63))
(define-fun .67 () (_ FP 11 53) (* .3 .13 .66))
(define-fun .68 () (_ FP 8 24) (* .3 .63 .63))
(define-fun .69 () (_ FP 8 24) (- .68))
(define-fun .70 () (_ FP 8 24) (+ .3 .9 .69))
(define-fun .71 () (_ FP 11 53) ((_ asFloat 11 53) .3 .70))
(define-fun .72 () (_ FP 11 53) (/ .3 .71 .67))
(define-fun .73 () (_ FP 8 24) ((_ asFloat 8 24) .3 .72))
(define-fun .74 () (_ FP 8 24) (+ .3 .63 .73))
(define-fun .75 () (_ FP 8 24) (* .3 .74 .74))
(define-fun .76 () (_ FP 8 24) (- .75))
(define-fun .77 () (_ FP 8 24) (+ .3 .9 .76))
(define-fun .78 () (_ FP 11 53) ((_ asFloat 11 53) .3 .77))
(define-fun .79 () (_ FP 8 24) ((_ asFloat 8 24) .3 .78))
(define-fun .80 () (_ FP 8 24) b966)
(define-fun .81 () Bool (= .79 .80))
(define-fun .82 () Bool (not .81))
(define-fun .83 () (_ FP 8 24) b901)
(define-fun .84 () Bool (= .74 .83))
(define-fun .85 () Bool (not .84))
(define-fun .86 () (_ FP 11 53) ((_ asFloat 11 53) .3 .83))
(define-fun .87 () (_ FP 11 53) (* .3 .13 .86))
(define-fun .88 () (_ FP 8 24) (* .3 .83 .83))
(define-fun .89 () (_ FP 8 24) (- .88))
(define-fun .90 () (_ FP 8 24) (+ .3 .9 .89))
(define-fun .91 () (_ FP 11 53) ((_ asFloat 11 53) .3 .90))
(define-fun .92 () (_ FP 11 53) (/ .3 .91 .87))
(define-fun .93 () (_ FP 8 24) ((_ asFloat 8 24) .3 .92))
(define-fun .94 () (_ FP 8 24) (+ .3 .83 .93))
(define-fun .95 () (_ FP 8 24) (* .3 .94 .94))
(define-fun .96 () (_ FP 8 24) (- .95))
(define-fun .97 () (_ FP 8 24) (+ .3 .9 .96))
(define-fun .98 () (_ FP 11 53) ((_ asFloat 11 53) .3 .97))
(define-fun .99 () (_ FP 8 24) ((_ asFloat 8 24) .3 .98))
(define-fun .100 () (_ FP 8 24) b931)
(define-fun .101 () Bool (= .99 .100))
(define-fun .102 () Bool (not .101))
(define-fun .103 () (_ FP 8 24) b866)
(define-fun .104 () Bool (= .94 .103))
(define-fun .105 () Bool (not .104))
(define-fun .106 () (_ FP 11 53) ((_ asFloat 11 53) .3 .103))
(define-fun .107 () (_ FP 11 53) (* .3 .13 .106))
(define-fun .108 () (_ FP 8 24) (* .3 .103 .103))
(define-fun .109 () (_ FP 8 24) (- .108))
(define-fun .110 () (_ FP 8 24) (+ .3 .9 .109))
(define-fun .111 () (_ FP 11 53) ((_ asFloat 11 53) .3 .110))
(define-fun .112 () (_ FP 11 53) (/ .3 .111 .107))
(define-fun .113 () (_ FP 8 24) ((_ asFloat 8 24) .3 .112))
(define-fun .114 () (_ FP 8 24) (+ .3 .103 .113))
(define-fun .115 () (_ FP 8 24) (* .3 .114 .114))
(define-fun .116 () (_ FP 8 24) (- .115))
(define-fun .117 () (_ FP 8 24) (+ .3 .9 .116))
(define-fun .118 () (_ FP 11 53) ((_ asFloat 11 53) .3 .117))
(define-fun .119 () (_ FP 8 24) ((_ asFloat 8 24) .3 .118))
(define-fun .120 () (_ FP 8 24) b896)
(define-fun .121 () Bool (= .119 .120))
(define-fun .122 () Bool (not .121))
(define-fun .123 () (_ FP 8 24) b831)
(define-fun .124 () Bool (= .114 .123))
(define-fun .125 () Bool (not .124))
(define-fun .126 () (_ FP 11 53) ((_ asFloat 11 53) .3 .123))
(define-fun .127 () (_ FP 11 53) (* .3 .13 .126))
(define-fun .128 () (_ FP 8 24) (* .3 .123 .123))
(define-fun .129 () (_ FP 8 24) (- .128))
(define-fun .130 () (_ FP 8 24) (+ .3 .9 .129))
(define-fun .131 () (_ FP 11 53) ((_ asFloat 11 53) .3 .130))
(define-fun .132 () (_ FP 11 53) (/ .3 .131 .127))
(define-fun .133 () (_ FP 8 24) ((_ asFloat 8 24) .3 .132))
(define-fun .134 () (_ FP 8 24) (+ .3 .123 .133))
(define-fun .135 () (_ FP 8 24) (* .3 .134 .134))
(define-fun .136 () (_ FP 8 24) (- .135))
(define-fun .137 () (_ FP 8 24) (+ .3 .9 .136))
(define-fun .138 () (_ FP 11 53) ((_ asFloat 11 53) .3 .137))
(define-fun .139 () (_ FP 8 24) ((_ asFloat 8 24) .3 .138))
(define-fun .140 () (_ FP 8 24) b861)
(define-fun .141 () Bool (= .139 .140))
(define-fun .142 () Bool (not .141))
(define-fun .143 () (_ FP 8 24) b796)
(define-fun .144 () Bool (= .134 .143))
(define-fun .145 () Bool (not .144))
(define-fun .146 () (_ FP 11 53) ((_ asFloat 11 53) .3 .143))
(define-fun .147 () (_ FP 11 53) (* .3 .13 .146))
(define-fun .148 () (_ FP 8 24) (* .3 .143 .143))
(define-fun .149 () (_ FP 8 24) (- .148))
(define-fun .150 () (_ FP 8 24) (+ .3 .9 .149))
(define-fun .151 () (_ FP 11 53) ((_ asFloat 11 53) .3 .150))
(define-fun .152 () (_ FP 11 53) (/ .3 .151 .147))
(define-fun .153 () (_ FP 8 24) ((_ asFloat 8 24) .3 .152))
(define-fun .154 () (_ FP 8 24) (+ .3 .143 .153))
(define-fun .155 () (_ FP 8 24) (* .3 .154 .154))
(define-fun .156 () (_ FP 8 24) (- .155))
(define-fun .157 () (_ FP 8 24) (+ .3 .9 .156))
(define-fun .158 () (_ FP 11 53) ((_ asFloat 11 53) .3 .157))
(define-fun .159 () (_ FP 8 24) ((_ asFloat 8 24) .3 .158))
(define-fun .160 () (_ FP 8 24) b826)
(define-fun .161 () Bool (= .159 .160))
(define-fun .162 () Bool (not .161))
(define-fun .163 () (_ FP 8 24) b760)
(define-fun .164 () Bool (= .154 .163))
(define-fun .165 () Bool (not .164))
(define-fun .166 () (_ FP 11 53) ((_ asFloat 11 53) .3 .163))
(define-fun .167 () (_ FP 11 53) (* .3 .13 .166))
(define-fun .168 () (_ FP 8 24) (* .3 .163 .163))
(define-fun .169 () (_ FP 8 24) (- .168))
(define-fun .170 () (_ FP 8 24) (+ .3 .9 .169))
(define-fun .171 () (_ FP 11 53) ((_ asFloat 11 53) .3 .170))
(define-fun .172 () (_ FP 11 53) (/ .3 .171 .167))
(define-fun .173 () (_ FP 8 24) ((_ asFloat 8 24) .3 .172))
(define-fun .174 () (_ FP 8 24) (+ .3 .163 .173))
(define-fun .175 () (_ FP 8 24) (* .3 .174 .174))
(define-fun .176 () (_ FP 8 24) (- .175))
(define-fun .177 () (_ FP 8 24) (+ .3 .9 .176))
(define-fun .178 () (_ FP 11 53) ((_ asFloat 11 53) .3 .177))
(define-fun .179 () (_ FP 8 24) ((_ asFloat 8 24) .3 .178))
(define-fun .180 () (_ FP 8 24) b791)
(define-fun .181 () Bool (= .179 .180))
(define-fun .182 () Bool (not .181))
(define-fun .183 () (_ FP 8 24) b739)
(define-fun .184 () Bool (= .174 .183))
(define-fun .185 () Bool (not .184))
(define-fun .186 () (_ FP 11 53) ((_ asFloat 11 53) .3 .183))
(define-fun .187 () (_ FP 11 53) (* .3 .13 .186))
(define-fun .188 () (_ FP 8 24) (* .3 .183 .183))
(define-fun .189 () (_ FP 8 24) (- .188))
(define-fun .190 () (_ FP 8 24) (+ .3 .9 .189))
(define-fun .191 () (_ FP 11 53) ((_ asFloat 11 53) .3 .190))
(define-fun .192 () (_ FP 11 53) (/ .3 .191 .187))
(define-fun .193 () (_ FP 8 24) ((_ asFloat 8 24) .3 .192))
(define-fun .194 () (_ FP 8 24) (+ .3 .183 .193))
(define-fun .195 () (_ FP 8 24) (* .3 .194 .194))
(define-fun .196 () (_ FP 8 24) (- .195))
(define-fun .197 () (_ FP 8 24) (+ .3 .9 .196))
(define-fun .198 () (_ FP 11 53) ((_ asFloat 11 53) .3 .197))
(define-fun .199 () (_ FP 8 24) ((_ asFloat 8 24) .3 .198))
(define-fun .200 () (_ FP 8 24) b755)
(define-fun .201 () Bool (= .199 .200))
(define-fun .202 () Bool (not .201))
(define-fun .203 () (_ FP 11 53) b442)
(define-fun .204 () (_ FP 8 24) ((_ asFloat 8 24) .3 .203))
(define-fun .205 () (_ FP 8 24) b734)
(define-fun .206 () Bool (= .204 .205))
(define-fun .207 () Bool (not .206))
(define-fun .208 () (_ FP 8 24) b126)
(define-fun .209 () Bool (== .9 .208))
(define-fun .210 () Bool (not .209))
(define-fun .211 () Bool (<= .208 .9))
(define-fun .212 () Bool (and .210 .211))
(define-fun .213 () Bool (<= .208 .204))
(define-fun .214 () Bool (not .213))
(define-fun .215 () Bool (and .212 .214))
(define-fun .216 () (_ FP 8 24) (- .204))
(define-fun .217 () Bool (= .205 .216))
(define-fun .218 () Bool (and .215 .217))
(define-fun .219 () Bool (and .207 .218))
(define-fun .220 () Bool (<= .208 .199))
(define-fun .221 () Bool (not .220))
(define-fun .222 () Bool (and .219 .221))
(define-fun .223 () (_ FP 8 24) (- .199))
(define-fun .224 () Bool (= .200 .223))
(define-fun .225 () Bool (and .222 .224))
(define-fun .226 () Bool (and .202 .225))
(define-fun .227 () Bool (= .163 .183))
(define-fun .228 () Bool (and .226 .227))
(define-fun .229 () Bool (and .185 .228))
(define-fun .230 () (_ FP 11 53) ((_ asFloat 11 53) .3 .180))
(define-fun .231 () (_ FP 11 53) b124)
(define-fun .232 () Bool (<= .230 .231))
(define-fun .233 () Bool (not .232))
(define-fun .234 () Bool (and .229 .233))
(define-fun .235 () Bool (<= .208 .179))
(define-fun .236 () Bool (not .235))
(define-fun .237 () Bool (and .234 .236))
(define-fun .238 () (_ FP 8 24) (- .179))
(define-fun .239 () Bool (= .180 .238))
(define-fun .240 () Bool (and .237 .239))
(define-fun .241 () Bool (and .182 .240))
(define-fun .242 () Bool (= .143 .163))
(define-fun .243 () Bool (and .241 .242))
(define-fun .244 () Bool (and .165 .243))
(define-fun .245 () (_ FP 11 53) ((_ asFloat 11 53) .3 .160))
(define-fun .246 () Bool (<= .245 .231))
(define-fun .247 () Bool (not .246))
(define-fun .248 () Bool (and .244 .247))
(define-fun .249 () Bool (<= .208 .159))
(define-fun .250 () Bool (not .249))
(define-fun .251 () Bool (and .248 .250))
(define-fun .252 () (_ FP 8 24) (- .159))
(define-fun .253 () Bool (= .160 .252))
(define-fun .254 () Bool (and .251 .253))
(define-fun .255 () Bool (and .162 .254))
(define-fun .256 () Bool (= .123 .143))
(define-fun .257 () Bool (and .255 .256))
(define-fun .258 () Bool (and .145 .257))
(define-fun .259 () (_ FP 11 53) ((_ asFloat 11 53) .3 .140))
(define-fun .260 () Bool (<= .259 .231))
(define-fun .261 () Bool (not .260))
(define-fun .262 () Bool (and .258 .261))
(define-fun .263 () Bool (<= .208 .139))
(define-fun .264 () Bool (not .263))
(define-fun .265 () Bool (and .262 .264))
(define-fun .266 () (_ FP 8 24) (- .139))
(define-fun .267 () Bool (= .140 .266))
(define-fun .268 () Bool (and .265 .267))
(define-fun .269 () Bool (and .142 .268))
(define-fun .270 () Bool (= .103 .123))
(define-fun .271 () Bool (and .269 .270))
(define-fun .272 () Bool (and .125 .271))
(define-fun .273 () (_ FP 11 53) ((_ asFloat 11 53) .3 .120))
(define-fun .274 () Bool (<= .273 .231))
(define-fun .275 () Bool (not .274))
(define-fun .276 () Bool (and .272 .275))
(define-fun .277 () Bool (<= .208 .119))
(define-fun .278 () Bool (not .277))
(define-fun .279 () Bool (and .276 .278))
(define-fun .280 () (_ FP 8 24) (- .119))
(define-fun .281 () Bool (= .120 .280))
(define-fun .282 () Bool (and .279 .281))
(define-fun .283 () Bool (and .122 .282))
(define-fun .284 () Bool (= .83 .103))
(define-fun .285 () Bool (and .283 .284))
(define-fun .286 () Bool (and .105 .285))
(define-fun .287 () (_ FP 11 53) ((_ asFloat 11 53) .3 .100))
(define-fun .288 () Bool (<= .287 .231))
(define-fun .289 () Bool (not .288))
(define-fun .290 () Bool (and .286 .289))
(define-fun .291 () Bool (<= .208 .99))
(define-fun .292 () Bool (not .291))
(define-fun .293 () Bool (and .290 .292))
(define-fun .294 () (_ FP 8 24) (- .99))
(define-fun .295 () Bool (= .100 .294))
(define-fun .296 () Bool (and .293 .295))
(define-fun .297 () Bool (and .102 .296))
(define-fun .298 () Bool (= .63 .83))
(define-fun .299 () Bool (and .297 .298))
(define-fun .300 () Bool (and .85 .299))
(define-fun .301 () (_ FP 11 53) ((_ asFloat 11 53) .3 .80))
(define-fun .302 () Bool (<= .301 .231))
(define-fun .303 () Bool (not .302))
(define-fun .304 () Bool (and .300 .303))
(define-fun .305 () Bool (<= .208 .79))
(define-fun .306 () Bool (not .305))
(define-fun .307 () Bool (and .304 .306))
(define-fun .308 () (_ FP 8 24) (- .79))
(define-fun .309 () Bool (= .80 .308))
(define-fun .310 () Bool (and .307 .309))
(define-fun .311 () Bool (and .82 .310))
(define-fun .312 () Bool (= .43 .63))
(define-fun .313 () Bool (and .311 .312))
(define-fun .314 () Bool (and .65 .313))
(define-fun .315 () (_ FP 11 53) ((_ asFloat 11 53) .3 .60))
(define-fun .316 () Bool (<= .315 .231))
(define-fun .317 () Bool (not .316))
(define-fun .318 () Bool (and .314 .317))
(define-fun .319 () Bool (<= .208 .59))
(define-fun .320 () Bool (not .319))
(define-fun .321 () Bool (and .318 .320))
(define-fun .322 () (_ FP 8 24) (- .59))
(define-fun .323 () Bool (= .60 .322))
(define-fun .324 () Bool (and .321 .323))
(define-fun .325 () Bool (and .62 .324))
(define-fun .326 () Bool (= .21 .43))
(define-fun .327 () Bool (and .325 .326))
(define-fun .328 () (_ FP 11 53) ((_ asFloat 11 53) .3 .27))
(define-fun .329 () Bool (<= .328 .231))
(define-fun .330 () Bool (and .327 .329))
(define-fun .331 () Bool (and .45 .330))
(define-fun .332 () (_ FP 11 53) ((_ asFloat 11 53) .3 .40))
(define-fun .333 () Bool (<= .332 .231))
(define-fun .334 () Bool (not .333))
(define-fun .335 () Bool (and .331 .334))
(define-fun .336 () Bool (<= .208 .39))
(define-fun .337 () Bool (not .336))
(define-fun .338 () Bool (and .335 .337))
(define-fun .339 () (_ FP 8 24) (- .39))
(define-fun .340 () Bool (= .40 .339))
(define-fun .341 () Bool (and .338 .340))
(define-fun .342 () Bool (and .42 .341))
(define-fun .343 () Bool (<= .208 .26))
(define-fun .344 () Bool (not .343))
(define-fun .345 () Bool (and .342 .344))
(define-fun .346 () (_ FP 8 24) (- .26))
(define-fun .347 () Bool (= .27 .346))
(define-fun .348 () Bool (and .345 .347))
(define-fun .349 () (_ FP 8 24) b452)
(define-fun .350 () Bool (<= .205 .349))
(define-fun .351 () Bool (not .350))
(define-fun .352 () Bool (and .348 .351))
(define-fun .353 () Bool (and .29 .352))
(assert .353)
(check-sat)
